p cnf 271 2056
103 118 132 138 141 0
47 120 125 176 179 0
98 102 109 140 185 0
73 91 96 115 219 0
79 84 87 89 241 0
76 78 100 0
114 130 0
152 157 159 0
40 55 146 163 0
37 116 122 165 223 0
34 82 101 167 170 243 0
134 171 174 195 0
151 160 178 181 0
97 112 123 182 0
74 93 107 0
67 69 206 208 0
63 64 65 75 127 0
58 59 61 154 0
53 56 144 0
51 135 172 0
48 117 0
43 45 46 149 0
72 105 110 0
41 77 0
38 54 153 158 0
36 143 0
33 35 0
31 169 0
29 137 0
27 42 0
25 71 85 0
21 23 70 0
57 60 155 0
17 18 19 0
14 16 168 0
13 50 52 136 0
99 119 133 139 173 0
49 121 126 177 180 183 0
104 106 131 142 0
175 184 0
88 212 229 252 258 0
81 186 187 0
95 108 188 0
147 164 189 0
113 129 166 190 0
39 83 145 162 0
191 232 260 0
193 194 221 0
28 196 197 198 0
86 199 201 202 236 0
22 24 111 203 0
92 204 205 0
207 209 210 211 0
-120 -138 0
-138 -213 0
-102 -138 0
-78 -138 0
-138 -152 0
-120 -213 0
-102 -120 0
-78 -120 0
-120 -152 0
-102 -213 0
-78 -213 0
-152 -213 0
-78 -102 0
-102 -152 0
-78 -152 0
-55 -165 0
-55 -215 0
-55 -167 0
-55 -151 0
-55 -112 0
-165 -215 0
-165 -167 0
-151 -165 0
-112 -165 0
-167 -215 0
-151 -215 0
-112 -215 0
-151 -167 0
-112 -167 0
-112 -151 0
-107 -200 0
-107 -206 0
-75 -107 0
-107 -216 0
-107 -217 0
-200 -206 0
-75 -200 0
-200 -216 0
-200 -217 0
-75 -206 0
-206 -216 0
-206 -217 0
-75 -216 0
-75 -217 0
-216 -217 0
-153 -218 0
-143 -218 0
-29 -218 0
-161 -218 0
-143 -153 0
-29 -153 0
-153 -161 0
-29 -143 0
-143 -161 0
-29 -161 0
-42 -124 0
-42 -71 0
-42 -57 0
-19 -42 0
-71 -124 0
-57 -124 0
-19 -124 0
-57 -71 0
-19 -71 0
-19 -57 0
-81 -108 0
-81 -220 0
-108 -220 0
-55 -138 0
-107 -138 0
-138 -218 0
-42 -138 0
-81 -138 0
-55 -107 0
-55 -218 0
-42 -55 0
-55 -81 0
-107 -218 0
-42 -107 0
-81 -107 0
-42 -218 0
-81 -218 0
-42 -81 0
-120 -165 0
-120 -200 0
-120 -153 0
-120 -124 0
-108 -120 0
-165 -200 0
-153 -165 0
-124 -165 0
-108 -165 0
-153 -200 0
-124 -200 0
-108 -200 0
-124 -153 0
-108 -153 0
-108 -124 0
-213 -215 0
-206 -213 0
-143 -213 0
-71 -213 0
-213 -220 0
-206 -215 0
-143 -215 0
-71 -215 0
-215 -220 0
-143 -206 0
-71 -206 0
-206 -220 0
-71 -143 0
-143 -220 0
-71 -220 0
-102 -167 0
-75 -102 0
-75 -167 0
-78 -151 0
-78 -216 0
-29 -78 0
-57 -78 0
-151 -216 0
-29 -151 0
-57 -151 0
-29 -216 0
-57 -216 0
-29 -57 0
-112 -152 0
-152 -217 0
-152 -161 0
-19 -152 0
-112 -217 0
-112 -161 0
-19 -112 0
-161 -217 0
-19 -217 0
-19 -161 0
-103 -176 0
-103 -185 0
-96 -103 0
-103 -241 0
-176 -185 0
-96 -176 0
-176 -241 0
-96 -185 0
-185 -241 0
-96 -241 0
-163 -223 0
-163 -243 0
-163 -222 0
-163 -195 0
-223 -243 0
-222 -223 0
-195 -223 0
-222 -243 0
-195 -243 0
-195 -222 0
-51 -225 0
-149 -225 0
-225 -226 0
-105 -225 0
-51 -149 0
-51 -226 0
-51 -105 0
-149 -226 0
-105 -149 0
-105 -226 0
-158 -227 0
-227 -228 0
-35 -227 0
-169 -227 0
-158 -228 0
-35 -158 0
-158 -169 0
-35 -228 0
-169 -228 0
-35 -169 0
-121 -139 0
-139 -214 0
-139 -212 0
-121 -214 0
-121 -212 0
-212 -214 0
-150 -199 0
-111 -150 0
-150 -207 0
-111 -199 0
-199 -207 0
-111 -207 0
-103 -163 0
-103 -225 0
-103 -227 0
-163 -225 0
-163 -227 0
-225 -227 0
-176 -223 0
-51 -176 0
-158 -176 0
-51 -223 0
-158 -223 0
-51 -158 0
-185 -243 0
-149 -185 0
-185 -228 0
-139 -185 0
-150 -185 0
-149 -243 0
-228 -243 0
-139 -243 0
-150 -243 0
-149 -228 0
-139 -149 0
-149 -150 0
-139 -228 0
-150 -228 0
-139 -150 0
-96 -222 0
-96 -226 0
-35 -96 0
-96 -121 0
-96 -199 0
-222 -226 0
-35 -222 0
-121 -222 0
-199 -222 0
-35 -226 0
-121 -226 0
-199 -226 0
-35 -121 0
-35 -199 0
-121 -199 0
-195 -241 0
-105 -241 0
-169 -241 0
-214 -241 0
-111 -241 0
-105 -195 0
-169 -195 0
-195 -214 0
-111 -195 0
-105 -169 0
-105 -214 0
-105 -111 0
-169 -214 0
-111 -169 0
-111 -214 0
-207 -212 0
-125 -141 0
-141 -230 0
-140 -141 0
-115 -141 0
-100 -141 0
-114 -141 0
-125 -230 0
-125 -140 0
-115 -125 0
-100 -125 0
-114 -125 0
-140 -230 0
-115 -230 0
-100 -230 0
-114 -230 0
-115 -140 0
-100 -140 0
-114 -140 0
-100 -115 0
-114 -115 0
-100 -114 0
-37 -40 0
-40 -233 0
-34 -40 0
-32 -40 0
-40 -178 0
-40 -237 0
-37 -233 0
-34 -37 0
-32 -37 0
-37 -178 0
-37 -237 0
-34 -233 0
-32 -233 0
-178 -233 0
-233 -237 0
-32 -34 0
-34 -178 0
-34 -237 0
-32 -178 0
-32 -237 0
-178 -237 0
-26 -93 0
-93 -208 0
-65 -93 0
-61 -93 0
-93 -238 0
-93 -239 0
-26 -208 0
-26 -65 0
-26 -61 0
-26 -238 0
-26 -239 0
-65 -208 0
-61 -208 0
-208 -238 0
-208 -239 0
-61 -65 0
-65 -238 0
-65 -239 0
-61 -238 0
-61 -239 0
-238 -239 0
-15 -135 0
-15 -117 0
-117 -135 0
-168 -240 0
-13 -240 0
-99 -240 0
-177 -240 0
-104 -240 0
-175 -240 0
-13 -168 0
-99 -168 0
-168 -177 0
-104 -168 0
-168 -175 0
-13 -99 0
-13 -177 0
-13 -104 0
-13 -175 0
-99 -177 0
-99 -104 0
-99 -175 0
-104 -177 0
-175 -177 0
-104 -175 0
-95 -186 0
-186 -242 0
-164 -186 0
-166 -186 0
-162 -186 0
-186 -224 0
-95 -242 0
-95 -164 0
-95 -166 0
-95 -162 0
-95 -224 0
-164 -242 0
-166 -242 0
-162 -242 0
-224 -242 0
-164 -166 0
-162 -164 0
-164 -224 0
-162 -166 0
-166 -224 0
-162 -224 0
-221 -244 0
-196 -244 0
-244 -245 0
-201 -244 0
-204 -244 0
-244 -246 0
-196 -221 0
-221 -245 0
-201 -221 0
-204 -221 0
-221 -246 0
-196 -245 0
-196 -201 0
-196 -204 0
-196 -246 0
-201 -245 0
-204 -245 0
-245 -246 0
-201 -204 0
-201 -246 0
-204 -246 0
-40 -141 0
-93 -141 0
-15 -141 0
-141 -240 0
-141 -186 0
-141 -244 0
-40 -93 0
-15 -40 0
-40 -240 0
-40 -186 0
-40 -244 0
-15 -93 0
-93 -240 0
-93 -186 0
-93 -244 0
-15 -240 0
-15 -186 0
-15 -244 0
-186 -240 0
-240 -244 0
-186 -244 0
-37 -125 0
-26 -125 0
-125 -135 0
-125 -168 0
-95 -125 0
-125 -221 0
-26 -37 0
-37 -135 0
-37 -168 0
-37 -95 0
-37 -221 0
-26 -135 0
-26 -168 0
-26 -95 0
-26 -221 0
-135 -168 0
-95 -135 0
-135 -221 0
-95 -168 0
-168 -221 0
-95 -221 0
-230 -233 0
-208 -230 0
-117 -230 0
-13 -230 0
-230 -242 0
-196 -230 0
-208 -233 0
-117 -233 0
-13 -233 0
-233 -242 0
-196 -233 0
-117 -208 0
-13 -208 0
-208 -242 0
-196 -208 0
-13 -117 0
-117 -242 0
-117 -196 0
-13 -242 0
-13 -196 0
-196 -242 0
-34 -140 0
-65 -140 0
-99 -140 0
-140 -164 0
-140 -245 0
-34 -65 0
-34 -99 0
-34 -164 0
-34 -245 0
-65 -99 0
-65 -164 0
-65 -245 0
-99 -164 0
-99 -245 0
-164 -245 0
-32 -115 0
-61 -115 0
-115 -177 0
-115 -166 0
-115 -201 0
-32 -61 0
-32 -177 0
-32 -166 0
-32 -201 0
-61 -177 0
-61 -166 0
-61 -201 0
-166 -177 0
-177 -201 0
-166 -201 0
-100 -178 0
-100 -238 0
-100 -104 0
-100 -162 0
-100 -204 0
-178 -238 0
-104 -178 0
-162 -178 0
-178 -204 0
-104 -238 0
-162 -238 0
-204 -238 0
-104 -162 0
-104 -204 0
-162 -204 0
-114 -237 0
-114 -239 0
-114 -175 0
-114 -224 0
-114 -246 0
-237 -239 0
-175 -237 0
-224 -237 0
-237 -246 0
-175 -239 0
-224 -239 0
-239 -246 0
-175 -224 0
-175 -246 0
-224 -246 0
-73 -89 0
-18 -60 0
-50 -126 0
-50 -231 0
-50 -142 0
-50 -229 0
-126 -231 0
-126 -142 0
-126 -229 0
-142 -231 0
-229 -231 0
-142 -229 0
-113 -247 0
-234 -247 0
-39 -247 0
-232 -247 0
-113 -234 0
-39 -113 0
-113 -232 0
-39 -234 0
-232 -234 0
-39 -232 0
-28 -236 0
-24 -28 0
-28 -92 0
-28 -209 0
-24 -236 0
-92 -236 0
-209 -236 0
-24 -92 0
-24 -209 0
-92 -209 0
-50 -247 0
-28 -50 0
-28 -247 0
-73 -126 0
-73 -113 0
-73 -236 0
-113 -126 0
-126 -236 0
-113 -236 0
-89 -231 0
-89 -234 0
-24 -89 0
-231 -234 0
-24 -231 0
-24 -234 0
-60 -142 0
-39 -60 0
-60 -92 0
-39 -142 0
-92 -142 0
-39 -92 0
-18 -229 0
-18 -232 0
-18 -209 0
-229 -232 0
-209 -229 0
-209 -232 0
-30 -82 0
-82 -171 0
-82 -160 0
-82 -123 0
-30 -171 0
-30 -160 0
-30 -123 0
-160 -171 0
-123 -171 0
-123 -160 0
-58 -64 0
-56 -64 0
-20 -64 0
-64 -249 0
-56 -58 0
-20 -58 0
-58 -249 0
-20 -56 0
-56 -249 0
-20 -249 0
-46 -250 0
-46 -110 0
-46 -90 0
-46 -77 0
-110 -250 0
-90 -250 0
-77 -250 0
-90 -110 0
-77 -110 0
-77 -90 0
-68 -70 0
-70 -128 0
-70 -155 0
-17 -70 0
-68 -128 0
-68 -155 0
-17 -68 0
-128 -155 0
-17 -128 0
-17 -155 0
-16 -173 0
-16 -49 0
-16 -44 0
-49 -173 0
-44 -173 0
-44 -49 0
-193 -251 0
-86 -193 0
-22 -193 0
-86 -251 0
-22 -251 0
-22 -86 0
-16 -193 0
-64 -82 0
-46 -82 0
-70 -82 0
-82 -173 0
-82 -251 0
-46 -64 0
-64 -70 0
-64 -173 0
-64 -251 0
-46 -70 0
-46 -173 0
-46 -251 0
-70 -173 0
-70 -251 0
-173 -251 0
-30 -58 0
-30 -250 0
-30 -68 0
-30 -49 0
-30 -86 0
-58 -250 0
-58 -68 0
-49 -58 0
-58 -86 0
-68 -250 0
-49 -250 0
-86 -250 0
-49 -68 0
-68 -86 0
-49 -86 0
-56 -171 0
-110 -171 0
-128 -171 0
-44 -171 0
-22 -171 0
-56 -110 0
-56 -128 0
-44 -56 0
-22 -56 0
-110 -128 0
-44 -110 0
-22 -110 0
-44 -128 0
-22 -128 0
-22 -44 0
-20 -160 0
-90 -160 0
-155 -160 0
-20 -90 0
-20 -155 0
-90 -155 0
-123 -249 0
-77 -123 0
-17 -123 0
-77 -249 0
-17 -249 0
-17 -77 0
-118 -253 0
-45 -148 0
-41 -45 0
-41 -148 0
-137 -255 0
-192 -255 0
-137 -192 0
-52 -256 0
-106 -256 0
-88 -256 0
-52 -106 0
-52 -88 0
-88 -106 0
-197 -257 0
-205 -257 0
-210 -257 0
-197 -205 0
-197 -210 0
-205 -210 0
-118 -256 0
-118 -257 0
-256 -257 0
-52 -253 0
-197 -253 0
-52 -197 0
-45 -255 0
-137 -148 0
-106 -148 0
-148 -205 0
-106 -137 0
-137 -205 0
-106 -205 0
-41 -192 0
-41 -88 0
-41 -210 0
-88 -192 0
-192 -210 0
-88 -210 0
-132 -179 0
-132 -259 0
-98 -132 0
-91 -132 0
-84 -132 0
-130 -132 0
-132 -157 0
-179 -259 0
-98 -179 0
-91 -179 0
-84 -179 0
-130 -179 0
-157 -179 0
-98 -259 0
-91 -259 0
-84 -259 0
-130 -259 0
-157 -259 0
-91 -98 0
-84 -98 0
-98 -130 0
-98 -157 0
-84 -91 0
-91 -130 0
-91 -157 0
-84 -130 0
-84 -157 0
-130 -157 0
-116 -146 0
-146 -261 0
-101 -146 0
-146 -262 0
-146 -174 0
-146 -263 0
-146 -182 0
-116 -261 0
-101 -116 0
-116 -262 0
-116 -174 0
-116 -263 0
-116 -182 0
-101 -261 0
-261 -262 0
-174 -261 0
-261 -263 0
-182 -261 0
-101 -262 0
-101 -174 0
-101 -263 0
-101 -182 0
-174 -262 0
-262 -263 0
-182 -262 0
-174 -263 0
-174 -182 0
-182 -263 0
-74 -264 0
-69 -74 0
-63 -74 0
-59 -74 0
-53 -74 0
-74 -265 0
-74 -266 0
-69 -264 0
-63 -264 0
-59 -264 0
-53 -264 0
-264 -265 0
-264 -266 0
-63 -69 0
-59 -69 0
-53 -69 0
-69 -265 0
-69 -266 0
-59 -63 0
-53 -63 0
-63 -265 0
-63 -266 0
-53 -59 0
-59 -265 0
-59 -266 0
-53 -265 0
-53 -266 0
-265 -266 0
-38 -248 0
-36 -248 0
-235 -248 0
-33 -248 0
-31 -248 0
-36 -38 0
-38 -235 0
-33 -38 0
-31 -38 0
-36 -235 0
-33 -36 0
-31 -36 0
-33 -235 0
-31 -235 0
-31 -33 0
-27 -94 0
-25 -27 0
-23 -27 0
-27 -66 0
-27 -62 0
-25 -94 0
-23 -94 0
-66 -94 0
-62 -94 0
-23 -25 0
-25 -66 0
-25 -62 0
-23 -66 0
-23 -62 0
-62 -66 0
-14 -267 0
-136 -267 0
-119 -267 0
-183 -267 0
-254 -267 0
-184 -267 0
-252 -267 0
-14 -136 0
-14 -119 0
-14 -183 0
-14 -254 0
-14 -184 0
-14 -252 0
-119 -136 0
-136 -183 0
-136 -254 0
-136 -184 0
-136 -252 0
-119 -183 0
-119 -254 0
-119 -184 0
-119 -252 0
-183 -254 0
-183 -184 0
-183 -252 0
-184 -254 0
-252 -254 0
-184 -252 0
-187 -188 0
-187 -268 0
-187 -189 0
-187 -190 0
-187 -269 0
-187 -270 0
-187 -191 0
-188 -268 0
-188 -189 0
-188 -190 0
-188 -269 0
-188 -270 0
-188 -191 0
-189 -268 0
-190 -268 0
-268 -269 0
-268 -270 0
-191 -268 0
-189 -190 0
-189 -269 0
-189 -270 0
-189 -191 0
-190 -269 0
-190 -270 0
-190 -191 0
-269 -270 0
-191 -269 0
-191 -270 0
-194 -271 0
-198 -271 0
-12 -271 0
-202 -271 0
-203 -271 0
-11 -271 0
-211 -271 0
-194 -198 0
-12 -194 0
-194 -202 0
-194 -203 0
-11 -194 0
-194 -211 0
-12 -198 0
-198 -202 0
-198 -203 0
-11 -198 0
-198 -211 0
-12 -202 0
-12 -203 0
-11 -12 0
-12 -211 0
-202 -203 0
-11 -202 0
-202 -211 0
-11 -203 0
-203 -211 0
-11 -211 0
-132 -146 0
-74 -132 0
-132 -248 0
-27 -132 0
-132 -267 0
-132 -187 0
-132 -271 0
-74 -146 0
-146 -248 0
-27 -146 0
-146 -267 0
-146 -187 0
-146 -271 0
-74 -248 0
-27 -74 0
-74 -267 0
-74 -187 0
-74 -271 0
-27 -248 0
-248 -267 0
-187 -248 0
-248 -271 0
-27 -267 0
-27 -187 0
-27 -271 0
-187 -267 0
-267 -271 0
-187 -271 0
-116 -179 0
-179 -264 0
-38 -179 0
-94 -179 0
-14 -179 0
-179 -188 0
-179 -194 0
-116 -264 0
-38 -116 0
-94 -116 0
-14 -116 0
-116 -188 0
-116 -194 0
-38 -264 0
-94 -264 0
-14 -264 0
-188 -264 0
-194 -264 0
-38 -94 0
-14 -38 0
-38 -188 0
-38 -194 0
-14 -94 0
-94 -188 0
-94 -194 0
-14 -188 0
-14 -194 0
-188 -194 0
-259 -261 0
-69 -259 0
-36 -259 0
-25 -259 0
-136 -259 0
-259 -268 0
-198 -259 0
-69 -261 0
-36 -261 0
-25 -261 0
-136 -261 0
-261 -268 0
-198 -261 0
-36 -69 0
-25 -69 0
-69 -136 0
-69 -268 0
-69 -198 0
-25 -36 0
-36 -136 0
-36 -268 0
-36 -198 0
-25 -136 0
-25 -268 0
-25 -198 0
-136 -268 0
-136 -198 0
-198 -268 0
-98 -101 0
-63 -98 0
-98 -235 0
-23 -98 0
-98 -119 0
-98 -189 0
-12 -98 0
-63 -101 0
-101 -235 0
-23 -101 0
-101 -119 0
-101 -189 0
-12 -101 0
-63 -235 0
-23 -63 0
-63 -119 0
-63 -189 0
-12 -63 0
-23 -235 0
-119 -235 0
-189 -235 0
-12 -235 0
-23 -119 0
-23 -189 0
-12 -23 0
-119 -189 0
-12 -119 0
-12 -189 0
-91 -262 0
-59 -91 0
-33 -91 0
-66 -91 0
-91 -183 0
-91 -190 0
-91 -202 0
-59 -262 0
-33 -262 0
-66 -262 0
-183 -262 0
-190 -262 0
-202 -262 0
-33 -59 0
-59 -66 0
-59 -183 0
-59 -190 0
-59 -202 0
-33 -66 0
-33 -183 0
-33 -190 0
-33 -202 0
-66 -183 0
-66 -190 0
-66 -202 0
-183 -190 0
-183 -202 0
-190 -202 0
-84 -174 0
-53 -84 0
-31 -84 0
-62 -84 0
-84 -254 0
-84 -269 0
-84 -203 0
-53 -174 0
-31 -174 0
-62 -174 0
-174 -254 0
-174 -269 0
-174 -203 0
-31 -53 0
-53 -62 0
-53 -254 0
-53 -269 0
-53 -203 0
-31 -62 0
-31 -254 0
-31 -269 0
-31 -203 0
-62 -254 0
-62 -269 0
-62 -203 0
-254 -269 0
-203 -254 0
-203 -269 0
-130 -263 0
-130 -265 0
-130 -184 0
-130 -270 0
-11 -130 0
-263 -265 0
-184 -263 0
-263 -270 0
-11 -263 0
-184 -265 0
-265 -270 0
-11 -265 0
-184 -270 0
-11 -184 0
-11 -270 0
-157 -182 0
-157 -266 0
-157 -252 0
-157 -191 0
-157 -211 0
-182 -266 0
-182 -252 0
-182 -191 0
-182 -211 0
-252 -266 0
-191 -266 0
-211 -266 0
-191 -252 0
-211 -252 0
-191 -211 0
-47 -80 0
-47 -109 0
-47 -219 0
-47 -79 0
-47 -76 0
-47 -159 0
-80 -109 0
-80 -219 0
-79 -80 0
-76 -80 0
-80 -159 0
-109 -219 0
-79 -109 0
-76 -109 0
-109 -159 0
-79 -219 0
-76 -219 0
-159 -219 0
-76 -79 0
-79 -159 0
-76 -159 0
-10 -122 0
-122 -170 0
-9 -122 0
-122 -134 0
-122 -181 0
-97 -122 0
-10 -170 0
-9 -10 0
-10 -134 0
-10 -181 0
-10 -97 0
-9 -170 0
-134 -170 0
-170 -181 0
-97 -170 0
-9 -134 0
-9 -181 0
-9 -97 0
-134 -181 0
-97 -134 0
-97 -181 0
-8 -67 0
-8 -127 0
-8 -154 0
-8 -144 0
-7 -8 0
-6 -8 0
-67 -127 0
-67 -154 0
-67 -144 0
-7 -67 0
-6 -67 0
-127 -154 0
-127 -144 0
-7 -127 0
-6 -127 0
-144 -154 0
-7 -154 0
-6 -154 0
-7 -144 0
-6 -144 0
-6 -7 0
-48 -172 0
-43 -172 0
-5 -172 0
-72 -172 0
-43 -48 0
-5 -48 0
-48 -72 0
-5 -43 0
-43 -72 0
-5 -72 0
-4 -85 0
-4 -21 0
-3 -4 0
-2 -4 0
-21 -85 0
-3 -85 0
-2 -85 0
-3 -21 0
-2 -21 0
-2 -3 0
-133 -180 0
-1 -133 0
-131 -133 0
-133 -258 0
-1 -180 0
-131 -180 0
-180 -258 0
-1 -131 0
-1 -258 0
-131 -258 0
-129 -147 0
-147 -156 0
-145 -147 0
-147 -260 0
-129 -156 0
-129 -145 0
-129 -260 0
-145 -156 0
-156 -260 0
-145 -260 0
-47 -122 0
-8 -47 0
-47 -172 0
-4 -47 0
-8 -122 0
-122 -172 0
-4 -122 0
-8 -172 0
-4 -8 0
-4 -172 0
-10 -80 0
-67 -80 0
-48 -80 0
-80 -85 0
-10 -67 0
-10 -48 0
-10 -85 0
-48 -67 0
-67 -85 0
-48 -85 0
-109 -170 0
-109 -127 0
-43 -109 0
-21 -109 0
-109 -133 0
-109 -147 0
-127 -170 0
-43 -170 0
-21 -170 0
-133 -170 0
-147 -170 0
-43 -127 0
-21 -127 0
-127 -133 0
-127 -147 0
-21 -43 0
-43 -133 0
-43 -147 0
-21 -133 0
-21 -147 0
-133 -147 0
-9 -219 0
-154 -219 0
-5 -219 0
-3 -219 0
-180 -219 0
-129 -219 0
-9 -154 0
-5 -9 0
-3 -9 0
-9 -180 0
-9 -129 0
-5 -154 0
-3 -154 0
-154 -180 0
-129 -154 0
-3 -5 0
-5 -180 0
-5 -129 0
-3 -180 0
-3 -129 0
-129 -180 0
-79 -134 0
-79 -144 0
-72 -79 0
-2 -79 0
-1 -79 0
-79 -156 0
-134 -144 0
-72 -134 0
-2 -134 0
-1 -134 0
-134 -156 0
-72 -144 0
-2 -144 0
-1 -144 0
-144 -156 0
-2 -72 0
-1 -72 0
-72 -156 0
-1 -2 0
-2 -156 0
-1 -156 0
-76 -181 0
-7 -76 0
-76 -131 0
-76 -145 0
-7 -181 0
-131 -181 0
-145 -181 0
-7 -131 0
-7 -145 0
-131 -145 0
-97 -159 0
-6 -159 0
-159 -258 0
-159 -260 0
-6 -97 0
-97 -258 0
-97 -260 0
-6 -258 0
-6 -260 0
-258 -260 0
-120 -138 0
-138 -213 0
-55 -138 0
-138 -165 0
-138 -215 0
-107 -138 0
-138 -200 0
-138 -206 0
-120 -213 0
-55 -120 0
-120 -165 0
-120 -215 0
-107 -120 0
-120 -200 0
-120 -206 0
-55 -213 0
-165 -213 0
-213 -215 0
-107 -213 0
-200 -213 0
-206 -213 0
-55 -165 0
-55 -215 0
-55 -107 0
-55 -200 0
-55 -206 0
-165 -215 0
-107 -165 0
-165 -200 0
-165 -206 0
-107 -215 0
-200 -215 0
-206 -215 0
-107 -200 0
-107 -206 0
-200 -206 0
-103 -176 0
-103 -163 0
-103 -223 0
-163 -176 0
-176 -223 0
-163 -223 0
-125 -141 0
-141 -230 0
-40 -141 0
-37 -141 0
-141 -233 0
-93 -141 0
-26 -141 0
-141 -208 0
-125 -230 0
-40 -125 0
-37 -125 0
-125 -233 0
-93 -125 0
-26 -125 0
-125 -208 0
-40 -230 0
-37 -230 0
-230 -233 0
-93 -230 0
-26 -230 0
-208 -230 0
-37 -40 0
-40 -233 0
-40 -93 0
-26 -40 0
-40 -208 0
-37 -233 0
-37 -93 0
-26 -37 0
-37 -208 0
-93 -233 0
-26 -233 0
-208 -233 0
-26 -93 0
-93 -208 0
-26 -208 0
-118 -253 0
-132 -179 0
-132 -259 0
-132 -146 0
-116 -132 0
-132 -261 0
-74 -132 0
-132 -264 0
-69 -132 0
-179 -259 0
-146 -179 0
-116 -179 0
-179 -261 0
-74 -179 0
-179 -264 0
-69 -179 0
-146 -259 0
-116 -259 0
-259 -261 0
-74 -259 0
-259 -264 0
-69 -259 0
-116 -146 0
-146 -261 0
-74 -146 0
-146 -264 0
-69 -146 0
-116 -261 0
-74 -116 0
-116 -264 0
-69 -116 0
-74 -261 0
-261 -264 0
-69 -261 0
-74 -264 0
-69 -74 0
-69 -264 0
-47 -80 0
-47 -122 0
-10 -47 0
-8 -47 0
-47 -67 0
-80 -122 0
-10 -80 0
-8 -80 0
-67 -80 0
-10 -122 0
-8 -122 0
-67 -122 0
-8 -10 0
-10 -67 0
-8 -67 0
-102 -167 0
-75 -102 0
-75 -167 0
-96 -185 0
-185 -241 0
-185 -243 0
-185 -222 0
-185 -195 0
-96 -241 0
-96 -243 0
-96 -222 0
-96 -195 0
-241 -243 0
-222 -241 0
-195 -241 0
-222 -243 0
-195 -243 0
-195 -222 0
-115 -140 0
-34 -140 0
-32 -140 0
-65 -140 0
-61 -140 0
-34 -115 0
-32 -115 0
-65 -115 0
-61 -115 0
-32 -34 0
-34 -65 0
-34 -61 0
-32 -65 0
-32 -61 0
-61 -65 0
-73 -89 0
-30 -82 0
-82 -171 0
-64 -82 0
-58 -82 0
-56 -82 0
-30 -171 0
-30 -64 0
-30 -58 0
-30 -56 0
-64 -171 0
-58 -171 0
-56 -171 0
-58 -64 0
-56 -64 0
-56 -58 0
-91 -98 0
-84 -98 0
-98 -101 0
-98 -262 0
-98 -174 0
-63 -98 0
-59 -98 0
-53 -98 0
-84 -91 0
-91 -101 0
-91 -262 0
-91 -174 0
-63 -91 0
-59 -91 0
-53 -91 0
-84 -101 0
-84 -262 0
-84 -174 0
-63 -84 0
-59 -84 0
-53 -84 0
-101 -262 0
-101 -174 0
-63 -101 0
-59 -101 0
-53 -101 0
-174 -262 0
-63 -262 0
-59 -262 0
-53 -262 0
-63 -174 0
-59 -174 0
-53 -174 0
-59 -63 0
-53 -63 0
-53 -59 0
-109 -219 0
-79 -109 0
-109 -170 0
-9 -109 0
-109 -134 0
-109 -127 0
-109 -154 0
-109 -144 0
-79 -219 0
-170 -219 0
-9 -219 0
-134 -219 0
-127 -219 0
-154 -219 0
-144 -219 0
-79 -170 0
-9 -79 0
-79 -134 0
-79 -127 0
-79 -154 0
-79 -144 0
-9 -170 0
-134 -170 0
-127 -170 0
-154 -170 0
-144 -170 0
-9 -134 0
-9 -127 0
-9 -154 0
-9 -144 0
-127 -134 0
-134 -154 0
-134 -144 0
-127 -154 0
-127 -144 0
-144 -154 0
-78 -152 0
-78 -151 0
-78 -112 0
-78 -216 0
-78 -217 0
-151 -152 0
-112 -152 0
-152 -216 0
-152 -217 0
-112 -151 0
-151 -216 0
-151 -217 0
-112 -216 0
-112 -217 0
-216 -217 0
-100 -114 0
-100 -178 0
-100 -237 0
-100 -238 0
-100 -239 0
-114 -178 0
-114 -237 0
-114 -238 0
-114 -239 0
-178 -237 0
-178 -238 0
-178 -239 0
-237 -238 0
-237 -239 0
-238 -239 0
-123 -160 0
-20 -160 0
-160 -249 0
-20 -123 0
-123 -249 0
-20 -249 0
-130 -157 0
-130 -263 0
-130 -182 0
-130 -265 0
-130 -266 0
-157 -263 0
-157 -182 0
-157 -265 0
-157 -266 0
-182 -263 0
-263 -265 0
-263 -266 0
-182 -265 0
-182 -266 0
-265 -266 0
-76 -159 0
-76 -181 0
-76 -97 0
-7 -76 0
-6 -76 0
-159 -181 0
-97 -159 0
-7 -159 0
-6 -159 0
-97 -181 0
-7 -181 0
-6 -181 0
-7 -97 0
-6 -97 0
-6 -7 0
-153 -218 0
-143 -218 0
-42 -218 0
-124 -218 0
-71 -218 0
-143 -153 0
-42 -153 0
-124 -153 0
-71 -153 0
-42 -143 0
-124 -143 0
-71 -143 0
-42 -124 0
-42 -71 0
-71 -124 0
-51 -225 0
-225 -227 0
-158 -225 0
-51 -227 0
-51 -158 0
-158 -227 0
-15 -135 0
-15 -117 0
-117 -135 0
-38 -248 0
-36 -248 0
-27 -248 0
-94 -248 0
-25 -248 0
-36 -38 0
-27 -38 0
-38 -94 0
-25 -38 0
-27 -36 0
-36 -94 0
-25 -36 0
-27 -94 0
-25 -27 0
-25 -94 0
-48 -172 0
-4 -172 0
-85 -172 0
-4 -48 0
-48 -85 0
-4 -85 0
-149 -226 0
-105 -149 0
-149 -228 0
-35 -149 0
-149 -169 0
-105 -226 0
-226 -228 0
-35 -226 0
-169 -226 0
-105 -228 0
-35 -105 0
-105 -169 0
-35 -228 0
-169 -228 0
-35 -169 0
-46 -250 0
-46 -110 0
-46 -70 0
-46 -68 0
-46 -128 0
-110 -250 0
-70 -250 0
-68 -250 0
-128 -250 0
-70 -110 0
-68 -110 0
-110 -128 0
-68 -70 0
-70 -128 0
-68 -128 0
-45 -255 0
-33 -235 0
-31 -235 0
-23 -235 0
-66 -235 0
-62 -235 0
-31 -33 0
-23 -33 0
-33 -66 0
-33 -62 0
-23 -31 0
-31 -66 0
-31 -62 0
-23 -66 0
-23 -62 0
-62 -66 0
-5 -43 0
-43 -72 0
-21 -43 0
-3 -43 0
-2 -43 0
-5 -72 0
-5 -21 0
-3 -5 0
-2 -5 0
-21 -72 0
-3 -72 0
-2 -72 0
-3 -21 0
-2 -21 0
-2 -3 0
-29 -161 0
-29 -57 0
-19 -29 0
-57 -161 0
-19 -161 0
-19 -57 0
-18 -60 0
-77 -90 0
-90 -155 0
-17 -90 0
-77 -155 0
-17 -77 0
-17 -155 0
-41 -148 0
-137 -148 0
-148 -192 0
-41 -137 0
-41 -192 0
-137 -192 0
-81 -108 0
-81 -220 0
-108 -220 0
-168 -240 0
-13 -240 0
-186 -240 0
-95 -240 0
-240 -242 0
-240 -244 0
-221 -240 0
-196 -240 0
-13 -168 0
-168 -186 0
-95 -168 0
-168 -242 0
-168 -244 0
-168 -221 0
-168 -196 0
-13 -186 0
-13 -95 0
-13 -242 0
-13 -244 0
-13 -221 0
-13 -196 0
-95 -186 0
-186 -242 0
-186 -244 0
-186 -221 0
-186 -196 0
-95 -242 0
-95 -244 0
-95 -221 0
-95 -196 0
-242 -244 0
-221 -242 0
-196 -242 0
-221 -244 0
-196 -244 0
-196 -221 0
-50 -247 0
-28 -50 0
-28 -247 0
-16 -193 0
-52 -256 0
-256 -257 0
-197 -256 0
-52 -257 0
-52 -197 0
-197 -257 0
-14 -267 0
-136 -267 0
-187 -267 0
-188 -267 0
-267 -268 0
-267 -271 0
-194 -267 0
-198 -267 0
-14 -136 0
-14 -187 0
-14 -188 0
-14 -268 0
-14 -271 0
-14 -194 0
-14 -198 0
-136 -187 0
-136 -188 0
-136 -268 0
-136 -271 0
-136 -194 0
-136 -198 0
-187 -188 0
-187 -268 0
-187 -271 0
-187 -194 0
-187 -198 0
-188 -268 0
-188 -271 0
-188 -194 0
-188 -198 0
-268 -271 0
-194 -268 0
-198 -268 0
-194 -271 0
-198 -271 0
-194 -198 0
-121 -139 0
-139 -214 0
-139 -150 0
-139 -199 0
-111 -139 0
-121 -214 0
-121 -150 0
-121 -199 0
-111 -121 0
-150 -214 0
-199 -214 0
-111 -214 0
-150 -199 0
-111 -150 0
-111 -199 0
-99 -177 0
-99 -164 0
-99 -166 0
-99 -245 0
-99 -201 0
-164 -177 0
-166 -177 0
-177 -245 0
-177 -201 0
-164 -166 0
-164 -245 0
-164 -201 0
-166 -245 0
-166 -201 0
-201 -245 0
-126 -231 0
-113 -126 0
-126 -234 0
-126 -236 0
-24 -126 0
-113 -231 0
-231 -234 0
-231 -236 0
-24 -231 0
-113 -234 0
-113 -236 0
-24 -113 0
-234 -236 0
-24 -234 0
-24 -236 0
-49 -173 0
-44 -173 0
-173 -251 0
-86 -173 0
-22 -173 0
-44 -49 0
-49 -251 0
-49 -86 0
-22 -49 0
-44 -251 0
-44 -86 0
-22 -44 0
-86 -251 0
-22 -251 0
-22 -86 0
-119 -183 0
-119 -254 0
-119 -189 0
-119 -190 0
-119 -269 0
-12 -119 0
-119 -202 0
-119 -203 0
-183 -254 0
-183 -189 0
-183 -190 0
-183 -269 0
-12 -183 0
-183 -202 0
-183 -203 0
-189 -254 0
-190 -254 0
-254 -269 0
-12 -254 0
-202 -254 0
-203 -254 0
-189 -190 0
-189 -269 0
-12 -189 0
-189 -202 0
-189 -203 0
-190 -269 0
-12 -190 0
-190 -202 0
-190 -203 0
-12 -269 0
-202 -269 0
-203 -269 0
-12 -202 0
-12 -203 0
-202 -203 0
-133 -180 0
-1 -133 0
-133 -147 0
-129 -133 0
-133 -156 0
-1 -180 0
-147 -180 0
-129 -180 0
-156 -180 0
-1 -147 0
-1 -129 0
-1 -156 0
-129 -147 0
-147 -156 0
-129 -156 0
-207 -212 0
-104 -175 0
-104 -162 0
-104 -224 0
-104 -204 0
-104 -246 0
-162 -175 0
-175 -224 0
-175 -204 0
-175 -246 0
-162 -224 0
-162 -204 0
-162 -246 0
-204 -224 0
-224 -246 0
-204 -246 0
-142 -229 0
-39 -142 0
-142 -232 0
-92 -142 0
-142 -209 0
-39 -229 0
-229 -232 0
-92 -229 0
-209 -229 0
-39 -232 0
-39 -92 0
-39 -209 0
-92 -232 0
-209 -232 0
-92 -209 0
-88 -106 0
-106 -205 0
-106 -210 0
-88 -205 0
-88 -210 0
-205 -210 0
-184 -252 0
-184 -270 0
-184 -191 0
-11 -184 0
-184 -211 0
-252 -270 0
-191 -252 0
-11 -252 0
-211 -252 0
-191 -270 0
-11 -270 0
-211 -270 0
-11 -191 0
-191 -211 0
-11 -211 0
-131 -258 0
-131 -145 0
-131 -260 0
-145 -258 0
-258 -260 0
-145 -260 0
